sat
(:max-memory          18.42
 :memory              18.32
 :nlsat-arith-var     2
 :nlsat-atoms         9
 :nlsat-bool-var      1
 :nlsat-clauses       7
 :nlsat-conflicts     2
 :nlsat-propagations  15
 :nlsat-stages        5
 :num-allocs          50827
 :rlimit-count        930
 :solve-eqs-elim-vars 1
 :solve-eqs-steps     6
 :time                0.00
 :total-time          0.01)
